%%%mzn-stat: initTime=0.115877026
%%%mzn-stat: objective=188
%%%mzn-stat: nodes=1295
%%%mzn-stat: restarts=0
%%%mzn-stat: peakDepth=764
%%%mzn-stat: solveTime=0.262038317
%%%mzn-stat: variables=1827
%%%mzn-stat: propagators=1453
%%%mzn-stat: failures=351
%%%mzn-stat: propagations=151242
%%%mzn-stat: nogoods=351
%%%mzn-stat: AverageConflictSize=2.3561253561253563
%%%mzn-stat: NumUnitNogoodsLearned=187
%%%mzn-stat: AverageLearnedNogoodLength=52.9059829059829
%%%mzn-stat: AverageBacktrackAmount=0
%%%mzn-stat: AverageLbd=8.068376068376068
%%%mzn-stat-end
maxleg = 188;
succ = array1d(1..100,[44, 4, 32, 90, 30, 38, 56, 52, 85, 61, 55, 80, 26, 43, 40, 17, 97, 98, 72, 35, 95, 74, 37, 53, 76, 78, 11, 12, 83, 99, 64, 49, 7, 23, 13, 21, 31, 51, 63, 45, 36, 77, 62, 94, 6, 96, 33, 19, 65, 10, 73, 58, 42, 9, 100, 20, 18, 54, 67, 66, 29, 5, 60, 84, 70, 15, 88, 41, 48, 59, 16, 24, 57, 75, 79, 92, 93, 1, 46, 25, 2, 8, 86, 47, 81, 87, 3, 69, 68, 22, 27, 89, 91, 82, 14, 39, 34, 50, 71, 28]);
% time elapsed: 7.22 s
----------
==========
% time elapsed: 7.22 s
%%%mzn-stat: initTime=0.115877026
%%%mzn-stat: objective=188
%%%mzn-stat: nodes=1295
%%%mzn-stat: restarts=0
%%%mzn-stat: peakDepth=764
%%%mzn-stat: solveTime=0.26205349
%%%mzn-stat: variables=1827
%%%mzn-stat: propagators=1453
%%%mzn-stat: failures=351
%%%mzn-stat: propagations=151242
%%%mzn-stat: nogoods=351
%%%mzn-stat: AverageConflictSize=2.3561253561253563
%%%mzn-stat: NumUnitNogoodsLearned=187
%%%mzn-stat: AverageLearnedNogoodLength=52.9059829059829
%%%mzn-stat: AverageBacktrackAmount=0
%%%mzn-stat: AverageLbd=8.068376068376068
%%%mzn-stat-end
